Instance name : lr110
Authors       : Geir Hasle, Oddvar Kloster
Date          : 26.12.2003 02:06:39
Reference     : Chapter in G. Hasle, K-A Lie, E. Quak (eds): Geometric Modelling, Numerical Simulation, and Optimization. ISBN 978-3-540-68782-5, Springer 2007.
Solution
Route  1 : 28 12 76 29 78 79 3 50 77 104 68 80
Route  2 : 95 14 44 38 86 17 84 45 60 89
Route  3 : 2 41 22 74 73 40 53 26 54 24
Route  4 : 92 59 99 98 85 87 57 15 43 42 13 58
Route  5 : 30 71 9 51 81 34 35 33 103 1
Route  6 : 83 5 16 61 6 94 96 97 37 100 91 93
Route  7 : 52 88 7 82 18 8 46 48
Route  8 : 27 69 31 63 90 10 101 20 66 65
Route  9 : 21 72 75 56 23 67 39 25 55 4
Route  10 : 62 11 19 47 36 49 64 32 102 70
